
Gurobi 7.5.2 (win64, Python) logging started 01/16/18 05:02:50

Academic license - for non-commercial use only

Gurobi 7.5.2 (win64, Python) logging started 01/16/18 05:03:15

Academic license - for non-commercial use only

Gurobi 7.5.2 (win64, Python) logging started 01/16/18 07:03:38

Academic license - for non-commercial use only

Gurobi 7.5.2 (win64, Python) logging started 01/16/18 07:14:17

Academic license - for non-commercial use only

Gurobi 7.5.2 (win64, Python) logging started 01/16/18 07:15:45

Academic license - for non-commercial use only

Gurobi 7.5.2 (win64, Python) logging started 01/19/18 11:57:52

Academic license - for non-commercial use only

Gurobi 7.5.2 (win64, Python) logging started 01/19/18 12:04:48

Academic license - for non-commercial use only

Gurobi 7.5.2 (win64, Python) logging started 01/19/18 12:06:56

Academic license - for non-commercial use only

Gurobi 7.5.2 (win64, Python) logging started 01/19/18 12:08:23

Academic license - for non-commercial use only

Gurobi 7.5.2 (win64, Python) logging started 01/19/18 12:09:30

Academic license - for non-commercial use only

Gurobi 7.5.2 (win64, Python) logging started 01/19/18 14:08:02

Academic license - for non-commercial use only

Gurobi 7.5.2 (win64, Python) logging started 01/19/18 14:16:02

Academic license - for non-commercial use only

Gurobi 7.5.2 (win64, Python) logging started 01/20/18 04:54:01

Academic license - for non-commercial use only

Gurobi 7.5.2 (win64, Python) logging started 01/20/18 12:55:01

Academic license - for non-commercial use only

Gurobi 7.5.2 (win64, Python) logging started 01/20/18 13:03:02

Academic license - for non-commercial use only

Gurobi 7.5.2 (win64, Python) logging started 01/20/18 13:09:02

Academic license - for non-commercial use only

Gurobi 7.5.2 (win64, Python) logging started 01/21/18 08:50:08

Academic license - for non-commercial use only

Gurobi 7.5.2 (win64, Python) logging started 01/21/18 08:54:09

Academic license - for non-commercial use only

Gurobi 7.5.2 (win64, Python) logging started 01/21/18 08:54:27

Academic license - for non-commercial use only

Gurobi 7.5.2 (win64, Python) logging started 01/21/18 08:55:22

Academic license - for non-commercial use only

Gurobi 7.5.2 (win64, Python) logging started 01/21/18 09:07:03

Academic license - for non-commercial use only

Gurobi 7.5.2 (win64, Python) logging started 01/21/18 09:07:29

Academic license - for non-commercial use only

Gurobi 7.5.2 (win64, Python) logging started 01/21/18 09:11:55

Academic license - for non-commercial use only

Gurobi 7.5.2 (win64, Python) logging started 01/21/18 09:15:18

Academic license - for non-commercial use only

Gurobi 7.5.2 (win64, Python) logging started 01/21/18 09:21:10

Academic license - for non-commercial use only

Gurobi 7.5.2 (win64, Python) logging started 01/21/18 09:21:25

Academic license - for non-commercial use only

Gurobi 7.5.2 (win64, Python) logging started 01/21/18 09:22:43

Academic license - for non-commercial use only

Gurobi 7.5.2 (win64, Python) logging started 01/21/18 09:23:25

Academic license - for non-commercial use only

Gurobi 7.5.2 (win64, Python) logging started 01/21/18 09:29:45

Academic license - for non-commercial use only

Gurobi 7.5.2 (win64, Python) logging started 01/21/18 09:30:23

Academic license - for non-commercial use only

Gurobi 7.5.2 (win64, Python) logging started 01/21/18 09:31:34

Academic license - for non-commercial use only

Gurobi 7.5.2 (win64, Python) logging started 01/21/18 09:51:32

Academic license - for non-commercial use only

Gurobi 7.5.2 (win64, Python) logging started 01/21/18 10:05:04

Academic license - for non-commercial use only

Gurobi 7.5.2 (win64, Python) logging started 01/21/18 10:06:04

Academic license - for non-commercial use only

Gurobi 7.5.2 (win64, Python) logging started 01/21/18 10:21:34

Academic license - for non-commercial use only

Gurobi 7.5.2 (win64, Python) logging started 01/21/18 10:25:47

Academic license - for non-commercial use only

Gurobi 7.5.2 (win64, Python) logging started 01/21/18 10:26:41

Academic license - for non-commercial use only

Gurobi 7.5.2 (win64, Python) logging started 01/21/18 10:28:32

Academic license - for non-commercial use only

Gurobi 7.5.2 (win64, Python) logging started 01/21/18 10:34:47

Academic license - for non-commercial use only

Gurobi 7.5.2 (win64, Python) logging started 01/23/18 02:28:52

Academic license - for non-commercial use only

Gurobi 7.5.2 (win64, Python) logging started 01/23/18 02:30:54

Academic license - for non-commercial use only

Gurobi 7.5.2 (win64, Python) logging started 01/23/18 02:36:59

Academic license - for non-commercial use only

Gurobi 7.5.2 (win64, Python) logging started 01/23/18 02:41:14

Academic license - for non-commercial use only
